3 
4  39 
5  01 20 28 36 45 55 
6  03 11 18 26 33 41 48 56 
7  03 11 18 26 33 41 48 56 
8  03 11 18 26 33 41 48 55 
9  03 10 18 25 33 40 48 55 
10  03 10 18 25 33 40 48 55 
11  03 10 18 25 33 40 48 55 
12  03 10 18 25 33 40 48 55 
13  03 10 18 25 33 40 48 55 
14  03 10 18 25 33 40 48 55 
15  03 10 18 25 33 40 48 55 
16  03 10 18 25 33 40 48 55 
17  03 10 18 25 33 40 48 55 
18  03 10 18 25 33 40 48 55 
19  03 10 18 25 33 40 48 57 
20  12 27 42 57 
21  12 27 41 56 
22  12 27 41 
23 
